50
    59    53    67    24    48    82    86    42    51    59    75    37    82    77    65    84    17    20     5     3   100    64    56    49    38    74    99    23     8     7    28    62    47     9    53    48    63    18     1    99    26    63    12    78    73    62    44    86     6    25
     2     5     2     2     1    10    10     1    10     8     2     3     6     7     4     2     6     9    10     9     5     5     5    10    10     4     5     3     5     9     1     7     5     4    10     6     6     8     1     2     2     7     2     3     8     5     2     7     6     3
  1350  1192  1264   788  1846     9  1009  1814  1495   811  1914  1704  1377   892   641  1811  1363    63   161  1060   665   338   979  1043  1340   722  1192   308   983   825  1470  1418   155  1548  1175  1322   969   839  1382   365   771   262  1001   519   547   768  1760   650   565  1396
